presolving:
(round 1, fast)       319 del vars, 0 del conss, 0 add conss, 0 chg bounds, 0 chg sides, 0 chg coeffs, 0 upgd conss, 0 impls, 636 clqs
(round 2, exhaustive) 319 del vars, 0 del conss, 0 add conss, 0 chg bounds, 0 chg sides, 0 chg coeffs, 636 upgd conss, 0 impls, 636 clqs
   (4.0s) probing: 51/100806 (0.1%) - 0 fixings, 0 aggregations, 0 implications, 0 bound changes
   (4.0s) probing aborted: 50/50 successive totally useless probings
   Deactivated symmetry handling methods, since SCIP was built without symmetry detector (SYM=none).
presolving (3 rounds: 3 fast, 2 medium, 2 exhaustive):
 319 deleted vars, 0 deleted constraints, 0 added constraints, 0 tightened bounds, 0 added holes, 0 changed sides, 0 changed coefficients
 0 implications, 636 cliques
presolved problem has 101123 variables (100806 bin, 0 int, 0 impl, 317 cont) and 100808 constraints
    636 constraints of type <setppc>
 100172 constraints of type <linear>
Presolving Time: 5.00

 time | node  | left  |LP iter|LP it/n|mem/heur|mdpt |vars |cons |rows |cuts |sepa|confs|strbr|  dualbound   | primalbound  |  gap   | compl. 
p10.0s|     1 |     0 |   317 |     - | vbounds|   0 | 101k| 100k| 100k|   0 |  0 |   5 |   0 | 0.000000e+00 | 1.204462e+05 |    Inf | unknown
 11.0s|     1 |     0 |  1327 |     - |   750M |   0 | 101k| 100k| 100k|   0 |  0 |   5 |   0 | 2.737007e+04 | 1.204462e+05 | 340.07%| unknown
 14.0s|     1 |     0 |  1668 |     - |   767M |   0 | 101k| 100k| 101k| 204 |  1 |   5 |   0 | 3.494894e+04 | 1.204462e+05 | 244.63%| unknown
 18.0s|     1 |     0 |  1773 |     - |   783M |   0 | 101k| 100k| 101k| 297 |  2 |   5 |   0 | 3.519391e+04 | 1.204462e+05 | 242.24%| unknown
 21.0s|     1 |     0 |  1779 |     - |   800M |   0 | 101k| 100k| 101k| 298 |  3 |   5 |   0 | 3.529277e+04 | 1.204462e+05 | 241.28%| unknown
 24.0s|     1 |     0 |  1822 |     - |   810M |   0 | 101k| 100k| 101k| 317 |  4 |   5 |   0 | 3.529277e+04 | 1.204462e+05 | 241.28%| unknown
 28.0s|     1 |     0 |  1863 |     - |   820M |   0 | 101k| 100k| 101k| 340 |  5 |   5 |   0 | 3.529277e+04 | 1.204462e+05 | 241.28%| unknown
 31.0s|     1 |     0 |  1873 |     - |   833M |   0 | 101k| 100k| 101k| 348 |  6 |   5 |   0 | 3.529277e+04 | 1.204462e+05 | 241.28%| unknown
 35.0s|     1 |     0 |  1879 |     - |   843M |   0 | 101k| 100k| 101k| 354 |  7 |   5 |   0 | 3.529277e+04 | 1.204462e+05 | 241.28%| unknown
 38.0s|     1 |     0 |  1921 |     - |   854M |   0 | 101k| 100k| 101k| 367 |  8 |   5 |   0 | 3.529277e+04 | 1.204462e+05 | 241.28%| unknown
 42.0s|     1 |     0 |  2155 |     - |   864M |   0 | 101k| 100k| 101k| 490 |  9 |   5 |   0 | 3.713789e+04 | 1.204462e+05 | 224.32%| unknown
 46.0s|     1 |     0 |  2301 |     - |   881M |   0 | 101k| 100k| 101k| 550 | 10 |   5 |   0 | 3.728561e+04 | 1.204462e+05 | 223.04%| unknown
 50.0s|     1 |     0 |  2367 |     - |   891M |   0 | 101k| 100k| 101k| 583 | 11 |   5 |   0 | 3.731162e+04 | 1.204462e+05 | 222.81%| unknown
 53.0s|     1 |     0 |  2394 |     - |   902M |   0 | 101k| 100k| 101k| 597 | 12 |   5 |   0 | 3.731969e+04 | 1.204462e+05 | 222.74%| unknown
  173m|     1 |     0 |  2420 |     - |   913M |   0 | 101k| 100k| 101k| 609 | 13 |   5 |   0 | 3.732578e+04 | 1.204462e+05 | 222.69%| unknown

SCIP Status        : solving was interrupted [time limit reached]
Solving Time (sec) : 10366.00
Solving Nodes      : 1
Primal Bound       : +1.20446209486118e+05 (1 solutions)
Dual Bound         : +3.73257756043253e+04
Gap                : 222.69 %
Trying to solve problem with MTZ Solver Method...
Starting Solver, time limit setted to 10 minutes
Route:  [[0, 2], [1, 3], [2, 1], [3, 4], [4, 5], [5, 6], [6, 7], [7, 8], [8, 9], [9, 10], [10, 11], [11, 12], [12, 13], [13, 14], [14, 15], [15, 16], [16, 17], [17, 18], [18, 19], [19, 20], [20, 21], [21, 22], [22, 23], [23, 24], [24, 25], [25, 26], [26, 27], [27, 28], [28, 29], [29, 30], [30, 31], [31, 32], [32, 33], [33, 34], [34, 35], [35, 36], [36, 37], [37, 38], [38, 39], [39, 40], [40, 41], [41, 42], [42, 43], [43, 44], [44, 45], [45, 46], [46, 47], [47, 48], [48, 49], [49, 50], [50, 51], [51, 52], [52, 53], [53, 54], [54, 55], [55, 56], [56, 57], [57, 58], [58, 59], [59, 60], [60, 61], [61, 62], [62, 63], [63, 64], [64, 65], [65, 66], [66, 67], [67, 68], [68, 69], [69, 70], [70, 71], [71, 72], [72, 73], [73, 74], [74, 75], [75, 76], [76, 77], [77, 78], [78, 79], [79, 80], [80, 81], [81, 82], [82, 83], [83, 84], [84, 85], [85, 86], [86, 87], [87, 88], [88, 89], [89, 90], [90, 91], [91, 92], [92, 93], [93, 94], [94, 95], [95, 96], [96, 97], [97, 98], [98, 99], [99, 100], [100, 101], [101, 102], [102, 103], [103, 104], [104, 105], [105, 106], [106, 107], [107, 108], [108, 109], [109, 110], [110, 111], [111, 112], [112, 113], [113, 114], [114, 115], [115, 116], [116, 117], [117, 118], [118, 119], [119, 120], [120, 121], [121, 122], [122, 123], [123, 124], [124, 125], [125, 126], [126, 127], [127, 128], [128, 129], [129, 130], [130, 131], [131, 132], [132, 133], [133, 134], [134, 135], [135, 136], [136, 137], [137, 138], [138, 139], [139, 140], [140, 141], [141, 142], [142, 143], [143, 144], [144, 145], [145, 146], [146, 147], [147, 148], [148, 149], [149, 150], [150, 151], [151, 152], [152, 153], [153, 154], [154, 155], [155, 156], [156, 157], [157, 158], [158, 159], [159, 160], [160, 161], [161, 162], [162, 163], [163, 164], [164, 165], [165, 166], [166, 167], [167, 168], [168, 169], [169, 170], [170, 171], [171, 172], [172, 173], [173, 174], [174, 175], [175, 176], [176, 177], [177, 178], [178, 179], [179, 180], [180, 181], [181, 182], [182, 183], [183, 184], [184, 185], [185, 186], [186, 187], [187, 188], [188, 189], [189, 190], [190, 191], [191, 192], [192, 193], [193, 194], [194, 195], [195, 196], [196, 197], [197, 198], [198, 199], [199, 200], [200, 201], [201, 202], [202, 203], [203, 204], [204, 205], [205, 206], [206, 207], [207, 208], [208, 209], [209, 210], [210, 211], [211, 212], [212, 213], [213, 214], [214, 215], [215, 216], [216, 217], [217, 218], [218, 219], [219, 220], [220, 221], [221, 222], [222, 223], [223, 224], [224, 225], [225, 226], [226, 227], [227, 228], [228, 229], [229, 230], [230, 231], [231, 232], [232, 233], [233, 234], [234, 235], [235, 236], [236, 237], [237, 238], [238, 239], [239, 240], [240, 241], [241, 242], [242, 243], [243, 244], [244, 245], [245, 246], [246, 247], [247, 248], [248, 249], [249, 250], [250, 251], [251, 252], [252, 253], [253, 254], [254, 255], [255, 256], [256, 257], [257, 258], [258, 259], [259, 260], [260, 261], [261, 262], [262, 263], [263, 264], [264, 265], [265, 266], [266, 267], [267, 268], [268, 269], [269, 270], [270, 271], [271, 272], [272, 273], [273, 274], [274, 275], [275, 276], [276, 277], [277, 278], [278, 279], [279, 280], [280, 281], [281, 282], [282, 283], [283, 284], [284, 285], [285, 286], [286, 287], [287, 288], [288, 289], [289, 290], [290, 291], [291, 292], [292, 293], [293, 294], [294, 295], [295, 296], [296, 297], [297, 298], [298, 299], [299, 300], [300, 301], [301, 302], [302, 303], [303, 304], [304, 305], [305, 306], [306, 307], [307, 308], [308, 309], [309, 310], [310, 311], [311, 312], [312, 313], [313, 314], [314, 315], [315, 316], [316, 317], [317, 0]]
An Otimal Solution was found, yay!
Objective value: 120446.2
Problem solved in 2420 iterations
Problem solved in 1 nodes
Final Route Configuration succesfully created at:
data/routes/linhp318.csv
